EPIC_poongsan/src/EPIC/src/global_planner/utils/lkh_tsp_solver/resource/single.tsp
NAME : single
TYPE : ATSP
DIMENSION : 4
EDGE_WEIGHT_TYPE : EXPLICIT
EDGE_WEIGHT_FORMAT : FULL_MATRIX
EDGE_WEIGHT_SECTION
0 9740 10006 0 
199403 0 265 9739 
199350 265 0 10005 
198704 9739 10005 0 
EOF