src/EPIC_poongsan/src/EPIC/src/global_planner/utils/lkh_tsp_solver/resource/single.txt
NAME : single.209354.tour
COMMENT : Length = 209354
COMMENT : Found by LKH [Keld Helsgaun] Wed Jul  1 23:59:45 2026
TYPE : TOUR
DIMENSION : 4
TOUR_SECTION
1
4
2
3
-1
EOF
